(set-logic HORN)
(declare-fun state ((Array Int Int) (Array Int Int) (Array Int Int) Int (Array Int Int) Int Int Int (Array Int Int) Int (Array Int Int) (Array Int Int) Bool Bool Int Int) Bool)
(assert (forall ((|T_1| (Array Int Int)) (|.y.15| (Array Int Int)) (|.y.16| (Array Int Int)) (|U_1| Int) (|.y.17| (Array Int Int)) (|W_0| Int) (|O_1| Int) (|H_1| Int) (|I_1| (Array Int Int)) (|B_2| Int) (|C_2| (Array Int Int)) (|A_2| (Array Int Int)) (|.loc.18| Bool) (|.loc.19| Bool) (|Y_0| Int) (|J_1| Int) (|.loc.32| Bool) (|.loc.33| Bool) (|.y.30| (Array Int Int)) (|.y.23| Int) (|.y.20| (Array Int Int)) (|.y.26| Int) (|.y.31| (Array Int Int)) (|.y.28| (Array Int Int)) (|.y.27| Int) (|.y.29| Int) (|.y.25| Int) (|.y.21| (Array Int Int)) (|.y.22| (Array Int Int)) (|.y.24| (Array Int Int)) (|.xtv.1| Int) (|.xtv.2| Int)) (=> (and (not .loc.19) (not .loc.18)) (state |T_1| |.y.15| |.y.16| |U_1| |.y.17| |W_0| |O_1| |H_1| |I_1| |B_2| |C_2| |A_2| |.loc.18| |.loc.19| |Y_0| |J_1|))))
(assert (forall ((|T_1| (Array Int Int)) (|.y.15| (Array Int Int)) (|.y.16| (Array Int Int)) (|U_1| Int) (|.y.17| (Array Int Int)) (|W_0| Int) (|O_1| Int) (|H_1| Int) (|I_1| (Array Int Int)) (|B_2| Int) (|C_2| (Array Int Int)) (|A_2| (Array Int Int)) (|.loc.18| Bool) (|.loc.19| Bool) (|Y_0| Int) (|J_1| Int) (|.loc.32| Bool) (|.loc.33| Bool) (|.y.30| (Array Int Int)) (|.y.23| Int) (|.y.20| (Array Int Int)) (|.y.26| Int) (|.y.31| (Array Int Int)) (|.y.28| (Array Int Int)) (|.y.27| Int) (|.y.29| Int) (|.y.25| Int) (|.y.21| (Array Int Int)) (|.y.22| (Array Int Int)) (|.y.24| (Array Int Int)) (|.xtv.1| Int) (|.xtv.2| Int)) (=> (and (state |T_1| |.y.15| |.y.16| |U_1| |.y.17| |W_0| |O_1| |H_1| |I_1| |B_2| |C_2| |A_2| |.loc.18| |.loc.19| |Y_0| |J_1|) (let ((.def_35 (select T_1 U_1))) (let ((.def_41 (not (<= J_1 0)))) (let ((.def_42 (<= W_0 0))) (let ((.def_44 (store A_2 O_1 H_1))) (let ((.def_45 (select .def_44 O_1))) (let ((.def_58 (<= B_2 0))) (let ((.def_59 (not .def_58))) (let ((.def_61 (not .def_42))) (let ((.def_65 (= (select C_2 (+ H_1 B_2)) 0))) (let ((.def_69 (or .def_58 (not (<= (+ H_1 B_2) 0))))) (let ((.def_73 (or .def_42 (not (<= Y_0 0))))) (let ((.def_98 (not .loc.33))) (and (not .loc.19) (or (or (and (not .loc.32) (and (and .loc.18 (and (= (select (store I_1 J_1 0) Y_0) 0) (and (not (<= .def_35 (- 1))) (and (or .def_41 .def_42) (and (not (<= .def_45 .def_35)) (and (= (+ W_0 (+ (* (- 1) Y_0) .def_35)) 0) (and (and (and (and (and (= (+ W_0 (+ H_1 (* (- 1) J_1))) 0) .def_59) .def_61) .def_65) .def_69) .def_73))))))) .loc.33)) (and (= T_1 .y.30) (and (= (store .y.15 .y.23 J_1) .y.20) (and (= (store .y.16 .y.26 0) .y.31) (and (= .y.17 .y.28) (and (= .y.27 0) (and (not .loc.18) (and .loc.32 .def_98)))))))) (and (= C_2 .y.30) (and (= B_2 .y.29) (and (= O_1 .y.26) (and (= W_0 .y.25) (and (= U_1 .y.23) (and (= T_1 .y.20) (and (or .def_41 .def_58) (and (not .def_65) (and (= (+ H_1 (+ B_2 (* (- 1) J_1))) 0) (and (= (+ W_0 (+ H_1 (* (- 1) Y_0))) 0) (and (= .y.28 (store I_1 Y_0 (select C_2 J_1))) (and (= (+ .def_45 (* (- 1) .y.27)) (- 1)) (and (= .def_44 .y.31) (and .def_98 (and .loc.32 (and .loc.18 (and .def_73 (and .def_69 (and .def_59 .def_61)))))))))))))))))))))))))))))))))) (state |.y.20| |.y.21| |.y.22| |.y.23| |.y.24| |.y.25| |.y.26| |.y.27| |.y.28| |.y.29| |.y.30| |.y.31| |.loc.32| |.loc.33| |.xtv.1| |.xtv.2|))))
(assert (forall ((|T_1| (Array Int Int)) (|.y.15| (Array Int Int)) (|.y.16| (Array Int Int)) (|U_1| Int) (|.y.17| (Array Int Int)) (|W_0| Int) (|O_1| Int) (|H_1| Int) (|I_1| (Array Int Int)) (|B_2| Int) (|C_2| (Array Int Int)) (|A_2| (Array Int Int)) (|.loc.18| Bool) (|.loc.19| Bool) (|Y_0| Int) (|J_1| Int) (|.loc.32| Bool) (|.loc.33| Bool) (|.y.30| (Array Int Int)) (|.y.23| Int) (|.y.20| (Array Int Int)) (|.y.26| Int) (|.y.31| (Array Int Int)) (|.y.28| (Array Int Int)) (|.y.27| Int) (|.y.29| Int) (|.y.25| Int) (|.y.21| (Array Int Int)) (|.y.22| (Array Int Int)) (|.y.24| (Array Int Int)) (|.xtv.1| Int) (|.xtv.2| Int)) (=> (state |T_1| |.y.15| |.y.16| |U_1| |.y.17| |W_0| |O_1| |H_1| |I_1| |B_2| |C_2| |A_2| |.loc.18| |.loc.19| |Y_0| |J_1|) (not (and .loc.19 (not .loc.18))))))
(check-sat)
